13
2 0 27
3 1 3
4 2 6
4 3 25
5 1 3
5 2 2
6 0 7
7 0 10
7 4 4
8 0 24
8 1 7
8 2 19
8 4 19
8 6 11
8 7 15
9 0 27
9 1 20
9 4 18
9 5 22
9 6 20
9 7 11
10 0 13
10 1 7
10 4 23
11 0 17
11 3 17
11 4 24
11 5 7
11 6 17
11 10 26
12 1 10
12 2 2
12 5 2
12 6 23
12 7 26
12 8 7
12 9 25
12 11 12
